0 7909.5
1 7482.36
2 7727.36
3 7889.37
4 7838.89
5 7799.33
6 7869.81
7 7821.13
8 7841.08
9 7600.98
10 7567.75
11 7814.44
12 7209.48
13 7870.08
14 7879.41
15 7883.32
16 7872.09
17 8030.37
18 8061.21
19 7659.61
20 7854.5
21 7925.72
22 8185.1
23 7648.61
24 7754.45
25 7590.01
26 7887.32
27 7816.9
28 7516.83
29 8067.23
30 7371.43
31 7434.24
32 7882.32
33 8028.37
34 8091.74
35 7975.63
36 7389.91
37 7794.16
38 7745.94
39 7825.7
40 7915.36
41 7697.45
42 7872.61
43 7855.36
44 7807.32
45 7655.97
46 7731.4
47 8277.16
48 8081.36
49 7804.38
